param n := 60;
param c := 3000
param : V : p w :=
   0	   5	 494
   1	  41	 250
   2	  39	 256
   3	  96	 429
   4	  77	 266
   5	  17	 305
   6	  55	 378
   7	  87	 268
   8	  79	 354
   9	  67	 482
  10	  39	 251
  11	  77	 267
  12	  23	 464
  13	  94	 259
  14	  61	 277
  15	  62	 398
  16	  85	 276
  17	  87	 326
  18	  49	 390
  19	  26	 260
  20	  11	 350
  21	  50	 482
  22	  49	 251
  23	  67	 267
  24	  34	 430
  25	  20	 262
  26	  77	 308
  27	  31	 400
  28	  63	 261
  29	  41	 339
  30	  10	 498
  31	  70	 250
  32	  54	 252
  33	  42	 362
  34	   4	 288
  35	  88	 350
  36	   5	 498
  37	  78	 250
  38	   8	 252
  39	  61	 459
  40	  21	 260
  41	  14	 281
  42	  81	 401
  43	  62	 271
  44	  49	 328
  45	  58	 367
  46	  35	 288
  47	  84	 345
  48	   8	 352
  49	  96	 279
  50	  40	 369
  51	  34	 476
  52	  98	 261
  53	  18	 263
  54	  97	 479
  55	  15	 254
  56	  38	 267
  57	  90	 436
  58	  92	 280
  59	  13	 284
;

set E :=
   0	   3
   0	   5
   0	   8
   0	  11
   0	  16
   0	  17
   0	  18
   0	  21
   0	  24
   0	  26
   0	  27
   0	  32
   0	  33
   0	  36
   0	  39
   0	  40
   0	  41
   0	  42
   0	  46
   0	  47
   0	  49
   0	  50
   0	  55
   0	  58
   1	   7
   1	   9
   1	  14
   1	  18
   1	  22
   1	  23
   1	  24
   1	  25
   1	  26
   1	  35
   1	  36
   1	  37
   1	  53
   1	  54
   2	   4
   2	   5
   2	   6
   2	  10
   2	  11
   2	  18
   2	  19
   2	  23
   2	  24
   2	  26
   2	  28
   2	  32
   2	  35
   2	  46
   2	  48
   2	  49
   2	  51
   2	  54
   2	  56
   2	  57
   2	  59
   3	   5
   3	   7
   3	   9
   3	  11
   3	  13
   3	  14
   3	  17
   3	  18
   3	  23
   3	  26
   3	  28
   3	  30
   3	  39
   3	  40
   3	  43
   3	  44
   3	  45
   3	  49
   3	  51
   3	  55
   3	  58
   4	  10
   4	  19
   4	  26
   4	  30
   4	  35
   4	  38
   4	  40
   4	  41
   4	  44
   4	  53
   4	  59
   5	   6
   5	  15
   5	  19
   5	  24
   5	  25
   5	  26
   5	  34
   5	  41
   5	  48
   5	  54
   5	  55
   5	  57
   6	   8
   6	  11
   6	  12
   6	  19
   6	  20
   6	  22
   6	  24
   6	  26
   6	  30
   6	  32
   6	  38
   6	  43
   6	  46
   6	  48
   6	  49
   6	  54
   6	  56
   6	  58
   6	  59
   7	   9
   7	  15
   7	  18
   7	  23
   7	  28
   7	  33
   7	  38
   7	  39
   7	  40
   7	  48
   7	  50
   7	  54
   7	  55
   7	  58
   7	  59
   8	   9
   8	  13
   8	  17
   8	  18
   8	  20
   8	  24
   8	  25
   8	  26
   8	  29
   8	  31
   8	  34
   8	  37
   8	  46
   8	  50
   8	  57
   8	  59
   9	  19
   9	  24
   9	  29
   9	  32
   9	  40
   9	  42
   9	  43
   9	  49
   9	  52
   9	  54
   9	  59
  10	  11
  10	  19
  10	  24
  10	  31
  10	  34
  10	  40
  10	  44
  10	  46
  10	  47
  10	  51
  10	  56
  10	  59
  11	  12
  11	  21
  11	  22
  11	  23
  11	  27
  11	  28
  11	  31
  11	  32
  11	  39
  11	  42
  11	  46
  11	  51
  11	  54
  11	  55
  11	  57
  12	  13
  12	  16
  12	  21
  12	  24
  12	  25
  12	  31
  12	  33
  12	  35
  12	  36
  12	  41
  12	  43
  12	  45
  12	  47
  12	  54
  12	  57
  13	  14
  13	  18
  13	  20
  13	  22
  13	  28
  13	  30
  13	  31
  13	  34
  13	  41
  13	  48
  13	  50
  13	  53
  13	  55
  13	  56
  14	  16
  14	  21
  14	  31
  14	  36
  14	  40
  14	  44
  14	  51
  14	  53
  14	  57
  15	  18
  15	  21
  15	  22
  15	  24
  15	  25
  15	  28
  15	  31
  15	  32
  15	  33
  15	  40
  15	  58
  16	  22
  16	  23
  16	  26
  16	  28
  16	  29
  16	  30
  16	  31
  16	  32
  16	  33
  16	  36
  16	  39
  16	  42
  16	  47
  16	  48
  16	  49
  16	  50
  16	  51
  16	  57
  16	  58
  17	  26
  17	  29
  17	  30
  17	  31
  17	  35
  17	  39
  17	  41
  17	  42
  17	  50
  17	  52
  17	  56
  17	  58
  18	  20
  18	  21
  18	  24
  18	  27
  18	  31
  18	  34
  18	  38
  18	  40
  18	  41
  18	  43
  18	  45
  18	  48
  19	  21
  19	  24
  19	  29
  19	  32
  19	  36
  19	  37
  19	  41
  19	  42
  19	  48
  19	  53
  19	  55
  20	  22
  20	  25
  20	  28
  20	  33
  20	  35
  20	  37
  20	  42
  20	  44
  20	  46
  20	  49
  20	  55
  20	  57
  21	  24
  21	  26
  21	  27
  21	  29
  21	  30
  21	  31
  21	  38
  21	  39
  21	  40
  21	  42
  21	  50
  22	  29
  22	  33
  22	  34
  22	  38
  22	  40
  22	  43
  22	  45
  22	  47
  22	  48
  22	  50
  22	  52
  22	  57
  23	  24
  23	  25
  23	  27
  23	  28
  23	  32
  23	  35
  23	  37
  23	  43
  23	  44
  23	  47
  23	  50
  23	  51
  23	  53
  23	  54
  24	  25
  24	  26
  24	  32
  24	  33
  24	  47
  24	  48
  24	  50
  24	  57
  25	  29
  25	  30
  25	  33
  25	  38
  25	  47
  25	  48
  25	  51
  25	  52
  25	  53
  25	  58
  25	  59
  26	  31
  26	  38
  26	  41
  26	  43
  26	  46
  26	  48
  26	  51
  26	  56
  26	  57
  26	  59
  27	  28
  27	  32
  27	  34
  27	  36
  27	  47
  27	  50
  27	  56
  27	  58
  28	  32
  28	  35
  28	  37
  28	  39
  28	  40
  28	  44
  28	  46
  28	  55
  28	  56
  29	  30
  29	  36
  29	  37
  29	  39
  29	  40
  29	  43
  29	  44
  29	  46
  29	  49
  29	  51
  29	  55
  30	  35
  30	  41
  30	  45
  30	  47
  30	  48
  30	  52
  30	  53
  30	  54
  30	  58
  31	  32
  31	  33
  31	  34
  31	  35
  31	  36
  31	  38
  31	  41
  31	  42
  31	  43
  31	  45
  31	  49
  31	  54
  31	  57
  31	  59
  32	  40
  32	  41
  32	  43
  32	  44
  32	  45
  32	  49
  32	  51
  32	  52
  32	  53
  32	  54
  32	  57
  33	  38
  33	  41
  33	  42
  33	  43
  33	  56
  33	  57
  33	  58
  34	  35
  34	  36
  34	  37
  34	  38
  34	  39
  34	  40
  34	  41
  34	  43
  34	  44
  34	  46
  34	  48
  34	  54
  34	  56
  34	  57
  35	  37
  35	  39
  35	  42
  35	  49
  35	  50
  35	  51
  35	  54
  35	  55
  35	  57
  36	  40
  36	  46
  36	  50
  36	  55
  36	  59
  37	  38
  37	  42
  37	  51
  37	  53
  37	  54
  38	  39
  38	  40
  38	  43
  38	  46
  38	  47
  38	  49
  38	  54
  39	  40
  39	  41
  39	  42
  39	  45
  39	  46
  39	  59
  40	  41
  40	  44
  40	  45
  40	  46
  40	  56
  40	  57
  40	  58
  41	  42
  41	  43
  41	  45
  41	  46
  41	  48
  41	  56
  41	  57
  42	  51
  42	  53
  42	  54
  42	  55
  43	  46
  43	  48
  43	  49
  43	  56
  44	  45
  44	  47
  44	  55
  44	  56
  44	  59
  45	  47
  45	  48
  45	  53
  46	  48
  46	  54
  46	  59
  47	  48
  47	  49
  47	  52
  47	  57
  47	  59
  48	  51
  48	  54
  48	  55
  48	  58
  49	  57
  49	  59
  50	  52
  52	  55
  53	  54
  53	  57
  53	  58
  53	  59
  55	  56
  57	  59
  58	  59
;
